NAME: instance_1337
TYPE: TSP
DIMENSION: 20
EDGE_WEIGHT_TYPE: EUC_2D
NODE_COORD_SECTION
0 2.05 15.79
1 25.22 26.36
2 88.64 35.10
3 40.80 62.83
4 53.13 7.40
5 48.61 11.86
6 6.32 20.90
7 9.35 16.15
8 62.07 78.86
9 51.11 8.69
10 60.86 11.25
11 39.56 37.02
12 68.36 31.16
13 12.41 96.43
14 99.54 34.38
15 43.64 75.17
16 8.37 70.34
17 60.62 49.46
18 82.75 40.99
19 13.80 19.33
EOF
